********************************************************************************
Probe Values Report, written on Thu Nov 16 18:53:59 2023

Source
-------

   ODB: C:/temp/Job-1.odb
   Step: Step-1
   Frame: Increment      1: Step Time =    1.000
   Variable: U, All direct

Probe values reported at nodes

  Part Instance     Node ID                   Orig. Coords                                     Def. Coords                 
                                    X               Y               Z               X               Y               Z      
-------------------------------------------------------------------------------------------------------------------------
    PART-1-1           1              1.              1.              1.              1.     999.991E-03              1.
    PART-1-1           2              1.              0.              1.              1.    -7.50587E-06     999.998E-03
    PART-1-1           3              1.              0.              0.              1.    -114.878E-33      -259.3E-33
    PART-1-1           4              1.              1.              0.              1.              1.       259.3E-33
    PART-1-1           5              0.              0.              1.    -497.642E-09    -7.52208E-06     999.999E-03
    PART-1-1           6              0.              0.              0.    -37.1701E-33    -149.641E-33      -240.7E-33
    PART-1-1           7              0.              1.              0.     15.1346E-33              1.       240.7E-33
    PART-1-1           8              0.              1.              1.    -234.375E-09      999.99E-03              1.
    PART-1-1           9     492.907E-03     533.767E-03     547.177E-03     492.907E-03     533.763E-03     547.177E-03


  Part Instance     Node ID  Attached elements           U, U1           U, U2           U, U3
-----------------------------------------------------------------------------------------------
    PART-1-1           1               5     86.5925E-09    -8.92024E-06     1.71092E-06
    PART-1-1           1               6     86.5925E-09    -8.92024E-06     1.71092E-06
    PART-1-1           1               8     86.5925E-09    -8.92024E-06     1.71092E-06
    PART-1-1           1              10     86.5925E-09    -8.92024E-06     1.71092E-06
    PART-1-1           2               1     234.872E-09    -7.50587E-06    -2.45344E-06
    PART-1-1           2               8     234.872E-09    -7.50587E-06    -2.45344E-06
    PART-1-1           2               9     234.872E-09    -7.50587E-06    -2.45344E-06
    PART-1-1           2              10     234.872E-09    -7.50587E-06    -2.45344E-06
    PART-1-1           2              11     234.872E-09    -7.50587E-06    -2.45344E-06
    PART-1-1           3               4     34.9453E-33    -114.878E-33      -259.3E-33
    PART-1-1           3               6     34.9453E-33    -114.878E-33      -259.3E-33
    PART-1-1           3               7     34.9453E-33    -114.878E-33      -259.3E-33
    PART-1-1           3               8     34.9453E-33    -114.878E-33      -259.3E-33
    PART-1-1           3              11     34.9453E-33    -114.878E-33      -259.3E-33
    PART-1-1           4               5    -12.9098E-33    -216.231E-33       259.3E-33
    PART-1-1           4               6    -12.9098E-33    -216.231E-33       259.3E-33
    PART-1-1           4               7    -12.9098E-33    -216.231E-33       259.3E-33
    PART-1-1           4              12    -12.9098E-33    -216.231E-33       259.3E-33
    PART-1-1           5               1    -497.642E-09    -7.52208E-06    -1.51182E-06
    PART-1-1           5               2    -497.642E-09    -7.52208E-06    -1.51182E-06
    PART-1-1           5               3    -497.642E-09    -7.52208E-06    -1.51182E-06
    PART-1-1           5               9    -497.642E-09    -7.52208E-06    -1.51182E-06
    PART-1-1           6               1    -37.1701E-33    -149.641E-33      -240.7E-33
    PART-1-1           6               2    -37.1701E-33    -149.641E-33      -240.7E-33
    PART-1-1           6               4    -37.1701E-33    -149.641E-33      -240.7E-33
    PART-1-1           6              11    -37.1701E-33    -149.641E-33      -240.7E-33
    PART-1-1           7               2     15.1346E-33    -352.584E-33       240.7E-33
    PART-1-1           7               3     15.1346E-33    -352.584E-33       240.7E-33
    PART-1-1           7               4     15.1346E-33    -352.584E-33       240.7E-33
    PART-1-1           7               7     15.1346E-33    -352.584E-33       240.7E-33
    PART-1-1           7              12     15.1346E-33    -352.584E-33       240.7E-33
    PART-1-1           8               3    -234.375E-09    -10.4912E-06     3.58198E-06
    PART-1-1           8               5    -234.375E-09    -10.4912E-06     3.58198E-06
    PART-1-1           8               9    -234.375E-09    -10.4912E-06     3.58198E-06
    PART-1-1           8              10    -234.375E-09    -10.4912E-06     3.58198E-06
    PART-1-1           8              12    -234.375E-09    -10.4912E-06     3.58198E-06
    PART-1-1           9               1    -143.154E-09    -4.38813E-06     165.793E-09
    PART-1-1           9               2    -143.154E-09    -4.38813E-06     165.793E-09
    PART-1-1           9               3    -143.154E-09    -4.38813E-06     165.793E-09
    PART-1-1           9               4    -143.154E-09    -4.38813E-06     165.793E-09
    PART-1-1           9               5    -143.154E-09    -4.38813E-06     165.793E-09
    PART-1-1           9               6    -143.154E-09    -4.38813E-06     165.793E-09
    PART-1-1           9               7    -143.154E-09    -4.38813E-06     165.793E-09
    PART-1-1           9               8    -143.154E-09    -4.38813E-06     165.793E-09
    PART-1-1           9               9    -143.154E-09    -4.38813E-06     165.793E-09
    PART-1-1           9              10    -143.154E-09    -4.38813E-06     165.793E-09
    PART-1-1           9              11    -143.154E-09    -4.38813E-06     165.793E-09
    PART-1-1           9              12    -143.154E-09    -4.38813E-06     165.793E-09


********************************************************************************
Probe Values Report, written on Thu Nov 16 21:26:19 2023

Source
-------

   ODB: C:/temp/Job-1.odb
   Step: Step-1
   Frame: Increment      1: Step Time =    1.000
   Variable: S, Mises (Not averaged)

Loc 1 : Integration point values

Probe values reported at integration points

  Part Instance  Element ID        Type  Attached nodes
--------------------------------------------------------------------------------
    PART-1-1           1        C3D4           2           6           5           9
    PART-1-1           2        C3D4           9           6           5           7
    PART-1-1           3        C3D4           7           9           8           5
    PART-1-1           4        C3D4           6           7           9           3
    PART-1-1           5        C3D4           4           9           1           8
    PART-1-1           6        C3D4           3           4           9           1
    PART-1-1           7        C3D4           3           7           9           4
    PART-1-1           8        C3D4           3           9           2           1
    PART-1-1           9        C3D4           5           9           8           2
    PART-1-1          10        C3D4           9           2           1           8
    PART-1-1          11        C3D4           6           9           2           3
    PART-1-1          12        C3D4           7           9           4           8


  Part Instance  Element ID        Type        Int. Pt.        S, Mises
--------------------------------------------------------------------------------
    PART-1-1           1        C3D4               1     769.715E+03
    PART-1-1           2        C3D4               1     1.10912E+06
    PART-1-1           3        C3D4               1     1.19518E+06
    PART-1-1           4        C3D4               1     1.12357E+06
    PART-1-1           5        C3D4               1     1.03016E+06
    PART-1-1           6        C3D4               1     1.29982E+06
    PART-1-1           7        C3D4               1     1.12357E+06
    PART-1-1           8        C3D4               1     674.658E+03
    PART-1-1           9        C3D4               1     989.057E+03
    PART-1-1          10        C3D4               1     983.764E+03
    PART-1-1          11        C3D4               1      751.95E+03
    PART-1-1          12        C3D4               1     1.30009E+06


